InboundTrucks  = 20;
OutboundTrucks = 13;
InboundDoors   = 2;
OutboundDoors  = 1;
ReleaseTime    = [1,41,55,51,46,17,1,30,35,22,15,27,56,1,54,4,19,8,38,19];
UnloadTime     = [8,5,5,7,6,7,4,8,7,5,1,9,6,3,10,4,10,5,8,8];
LoadTime       = [3,5,7,5,4,4,1,1,8,3,1,10,5];
TransferTime   = [| 0,0,1,0,4,0,0,0,0,0,5,0,0 | 4,5,0,0,2,2,0,0,0,0,0,0,0 | 0,0,3,0,1,2,0,0,2,0,0,0,0 | 0,0,0,4,0,5,4,0,0,0,0,0,0 | 0,0,0,0,0,0,0,0,0,0,0,3,0 | 0,3,5,0,2,3,4,0,0,0,0,0,0 | 0,0,0,0,0,0,0,2,0,0,0,0,0 | 2,2,0,0,0,2,1,0,0,0,0,1,0 | 0,0,0,0,0,4,0,0,0,0,0,0,0 | 4,3,1,0,0,0,0,0,0,0,2,0,2 | 0,0,0,3,0,0,0,0,0,0,0,0,0 | 0,0,0,0,0,0,0,0,0,0,0,4,5 | 4,0,0,0,0,0,0,5,3,5,0,0,0 | 0,0,2,0,0,0,1,0,0,0,0,0,1 | 1,0,0,0,0,0,1,0,1,0,0,0,1 | 4,0,0,0,1,0,0,5,0,0,0,0,2 | 0,0,0,0,0,0,4,0,0,0,0,0,0 | 0,0,0,0,0,5,0,0,0,0,0,0,0 | 1,0,0,0,0,0,0,0,0,0,3,0,0 | 0,2,1,0,1,2,0,0,2,0,0,0,0 |];
